clingo version 5.4.0
Reading from arteries_classifier.lp ...
Solving...
Answer: 1
artery(0,inf_mesenteric) confidence_rule(inf_mesenteric,0) confidence_rule(inf_mesenteric,1) confidence_rule(inf_mesenteric,2)
Optimization: -3
Answer: 2
artery(0,inf_mesenteric) artery(26,lumbarR4) confidence_rule(inf_mesenteric,0) confidence_rule(inf_mesenteric,1) confidence_rule(inf_mesenteric,2) confidence_rule(lumbarR4,0) confidence_rule(lumbarR4,3)
Optimization: -5
Answer: 3
artery(0,inf_mesenteric) artery(26,lumbarR4) artery(28,dorsal_pancreatic) confidence_rule(dorsal_pancreatic,1) confidence_rule(inf_mesenteric,0) confidence_rule(inf_mesenteric,1) confidence_rule(inf_mesenteric,2) confidence_rule(lumbarR4,0) confidence_rule(lumbarR4,3)
Optimization: -6
Answer: 4
artery(0,inf_mesenteric) artery(37,lumbarR1) artery(26,lumbarR4) confidence_rule(inf_mesenteric,0) confidence_rule(inf_mesenteric,1) confidence_rule(inf_mesenteric,2) confidence_rule(lumbarR1,0) confidence_rule(lumbarR1,3) confidence_rule(lumbarR4,0) confidence_rule(lumbarR4,3)
Optimization: -7
Answer: 5
artery(0,celiac_trunk) artery(39,renalL_mysterious) artery(9,renalR_mysterious) artery(37,lumbarR4) confidence_rule(celiac_trunk,0) confidence_rule(celiac_trunk,1) confidence_rule(celiac_trunk,2) confidence_rule(renalL_mysterious,0) confidence_rule(renalL_mysterious,1) confidence_rule(renalL_mysterious,2) confidence_rule(renalL_mysterious,3) confidence_rule(renalL_mysterious,5) confidence_rule(renalR_mysterious,1) confidence_rule(renalR_mysterious,2) confidence_rule(renalR_mysterious,3) confidence_rule(renalR_mysterious,4) confidence_rule(renalR_mysterious,6) confidence_rule(lumbarR4,0) confidence_rule(lumbarR4,3) confidence_rule(lumbarR4,12)
Optimization: -16
Answer: 6
artery(1,sup_mesenteric) artery(32,renalL) artery(33,renalR) artery(39,renalL_mysterious) artery(9,renalR_mysterious) artery(14,inf_mesenteric) artery(38,lumbarL1) artery(37,lumbarR1) artery(31,lumbarL2) artery(36,lumbarR2) artery(26,lumbarR3) artery(23,lumbarL3) artery(5,gastricL) artery(2,splenic) artery(10,hepatic) confidence_rule(gastricL,0) confidence_rule(splenic,0) confidence_rule(hepatic,0) confidence_rule(hepatic,2) confidence_rule(sup_mesenteric,0) confidence_rule(sup_mesenteric,1) confidence_rule(sup_mesenteric,2) confidence_rule(sup_mesenteric,3) confidence_rule(sup_mesenteric,7) confidence_rule(sup_mesenteric,8) confidence_rule(renalL,2) confidence_rule(renalL,5) confidence_rule(renalL,7) confidence_rule(renalR,0) confidence_rule(renalR,1) confidence_rule(renalR,2) confidence_rule(renalR,7) confidence_rule(renalL_mysterious,0) confidence_rule(renalL_mysterious,1) confidence_rule(renalL_mysterious,2) confidence_rule(renalL_mysterious,5) confidence_rule(renalR_mysterious,1) confidence_rule(renalR_mysterious,2) confidence_rule(renalR_mysterious,3) confidence_rule(renalR_mysterious,6) confidence_rule(inf_mesenteric,0) confidence_rule(inf_mesenteric,1) confidence_rule(inf_mesenteric,2) confidence_rule(inf_mesenteric,7) confidence_rule(inf_mesenteric,8) confidence_rule(lumbarL1,3) confidence_rule(lumbarL1,4) confidence_rule(lumbarL1,7) confidence_rule(lumbarL1,14) confidence_rule(lumbarR1,0) confidence_rule(lumbarR1,3) confidence_rule(lumbarR1,10) confidence_rule(lumbarR1,11) confidence_rule(lumbarR1,13) confidence_rule(lumbarL2,0) confidence_rule(lumbarL2,2) confidence_rule(lumbarL2,3) confidence_rule(lumbarL2,4) confidence_rule(lumbarL2,11) confidence_rule(lumbarL2,13) confidence_rule(lumbarL2,14) confidence_rule(lumbarR2,0) confidence_rule(lumbarR2,2) confidence_rule(lumbarR2,3) confidence_rule(lumbarR2,4) confidence_rule(lumbarR2,11) confidence_rule(lumbarR2,13) confidence_rule(lumbarR2,14) confidence_rule(lumbarR3,0) confidence_rule(lumbarR3,3) confidence_rule(lumbarR3,13) confidence_rule(lumbarR3,14) confidence_rule(lumbarL3,0) confidence_rule(lumbarL3,3) confidence_rule(lumbarL3,8) confidence_rule(lumbarL3,13) confidence_rule(lumbarL3,14)
Optimization: -62
Answer: 7
artery(0,celiac_trunk) artery(1,sup_mesenteric) artery(32,renalL) artery(33,renalR) artery(39,renalL_mysterious) artery(9,renalR_mysterious) artery(38,lumbarL1) artery(37,lumbarR1) artery(31,lumbarL2) artery(36,lumbarR2) artery(26,lumbarR3) artery(23,lumbarL3) artery(3,gastricL) artery(2,splenic) artery(13,hepatic) artery(10,dorsal_pancreatic) confidence_rule(celiac_trunk,0) confidence_rule(celiac_trunk,1) confidence_rule(celiac_trunk,2) confidence_rule(celiac_trunk,3) confidence_rule(celiac_trunk,4) confidence_rule(celiac_trunk,7) confidence_rule(celiac_trunk,12) confidence_rule(gastricL,0) confidence_rule(gastricL,1) confidence_rule(splenic,0) confidence_rule(hepatic,0) confidence_rule(dorsal_pancreatic,0) confidence_rule(sup_mesenteric,0) confidence_rule(sup_mesenteric,1) confidence_rule(sup_mesenteric,2) confidence_rule(sup_mesenteric,5) confidence_rule(sup_mesenteric,7) confidence_rule(sup_mesenteric,8) confidence_rule(renalL,2) confidence_rule(renalL,3) confidence_rule(renalL,5) confidence_rule(renalL,7) confidence_rule(renalR,0) confidence_rule(renalR,1) confidence_rule(renalR,2) confidence_rule(renalR,5) confidence_rule(renalR,6) confidence_rule(renalR,7) confidence_rule(renalL_mysterious,0) confidence_rule(renalL_mysterious,1) confidence_rule(renalL_mysterious,2) confidence_rule(renalL_mysterious,3) confidence_rule(renalL_mysterious,5) confidence_rule(renalR_mysterious,1) confidence_rule(renalR_mysterious,2) confidence_rule(renalR_mysterious,3) confidence_rule(renalR_mysterious,4) confidence_rule(renalR_mysterious,6) confidence_rule(lumbarL1,3) confidence_rule(lumbarL1,4) confidence_rule(lumbarL1,7) confidence_rule(lumbarL1,14) confidence_rule(lumbarR1,0) confidence_rule(lumbarR1,3) confidence_rule(lumbarR1,10) confidence_rule(lumbarR1,11) confidence_rule(lumbarR1,12) confidence_rule(lumbarR1,13) confidence_rule(lumbarL2,0) confidence_rule(lumbarL2,2) confidence_rule(lumbarL2,3) confidence_rule(lumbarL2,4) confidence_rule(lumbarL2,11) confidence_rule(lumbarL2,12) confidence_rule(lumbarL2,13) confidence_rule(lumbarL2,14) confidence_rule(lumbarR2,0) confidence_rule(lumbarR2,2) confidence_rule(lumbarR2,3) confidence_rule(lumbarR2,4) confidence_rule(lumbarR2,11) confidence_rule(lumbarR2,12) confidence_rule(lumbarR2,13) confidence_rule(lumbarR2,14) confidence_rule(lumbarR3,0) confidence_rule(lumbarR3,3) confidence_rule(lumbarR3,13) confidence_rule(lumbarR3,14) confidence_rule(lumbarL3,0) confidence_rule(lumbarL3,3) confidence_rule(lumbarL3,8) confidence_rule(lumbarL3,13) confidence_rule(lumbarL3,14)
Optimization: -73
Answer: 8
artery(0,celiac_trunk) artery(1,sup_mesenteric) artery(32,renalL) artery(33,renalR) artery(39,renalL_mysterious) artery(9,renalR_mysterious) artery(38,lumbarL1) artery(37,lumbarR1) artery(31,lumbarL2) artery(36,lumbarR2) artery(26,lumbarR3) artery(23,lumbarL3) artery(2,gastricL) artery(3,splenic) artery(11,hepatic) artery(10,dorsal_pancreatic) confidence_rule(celiac_trunk,0) confidence_rule(celiac_trunk,1) confidence_rule(celiac_trunk,2) confidence_rule(celiac_trunk,3) confidence_rule(celiac_trunk,4) confidence_rule(celiac_trunk,7) confidence_rule(celiac_trunk,12) confidence_rule(gastricL,0) confidence_rule(gastricL,1) confidence_rule(splenic,0) confidence_rule(hepatic,0) confidence_rule(hepatic,2) confidence_rule(dorsal_pancreatic,0) confidence_rule(sup_mesenteric,0) confidence_rule(sup_mesenteric,1) confidence_rule(sup_mesenteric,2) confidence_rule(sup_mesenteric,3) confidence_rule(sup_mesenteric,5) confidence_rule(sup_mesenteric,7) confidence_rule(sup_mesenteric,8) confidence_rule(renalL,2) confidence_rule(renalL,3) confidence_rule(renalL,5) confidence_rule(renalL,7) confidence_rule(renalR,0) confidence_rule(renalR,1) confidence_rule(renalR,2) confidence_rule(renalR,5) confidence_rule(renalR,6) confidence_rule(renalR,7) confidence_rule(renalL_mysterious,0) confidence_rule(renalL_mysterious,1) confidence_rule(renalL_mysterious,2) confidence_rule(renalL_mysterious,3) confidence_rule(renalL_mysterious,5) confidence_rule(renalR_mysterious,1) confidence_rule(renalR_mysterious,2) confidence_rule(renalR_mysterious,3) confidence_rule(renalR_mysterious,4) confidence_rule(renalR_mysterious,6) confidence_rule(lumbarL1,3) confidence_rule(lumbarL1,4) confidence_rule(lumbarL1,7) confidence_rule(lumbarL1,14) confidence_rule(lumbarR1,0) confidence_rule(lumbarR1,3) confidence_rule(lumbarR1,10) confidence_rule(lumbarR1,11) confidence_rule(lumbarR1,12) confidence_rule(lumbarR1,13) confidence_rule(lumbarL2,0) confidence_rule(lumbarL2,2) confidence_rule(lumbarL2,3) confidence_rule(lumbarL2,4) confidence_rule(lumbarL2,11) confidence_rule(lumbarL2,12) confidence_rule(lumbarL2,13) confidence_rule(lumbarL2,14) confidence_rule(lumbarR2,0) confidence_rule(lumbarR2,2) confidence_rule(lumbarR2,3) confidence_rule(lumbarR2,4) confidence_rule(lumbarR2,11) confidence_rule(lumbarR2,12) confidence_rule(lumbarR2,13) confidence_rule(lumbarR2,14) confidence_rule(lumbarR3,0) confidence_rule(lumbarR3,3) confidence_rule(lumbarR3,13) confidence_rule(lumbarR3,14) confidence_rule(lumbarL3,0) confidence_rule(lumbarL3,3) confidence_rule(lumbarL3,8) confidence_rule(lumbarL3,13) confidence_rule(lumbarL3,14)
Optimization: -75
Answer: 9
artery(0,celiac_trunk) artery(1,sup_mesenteric) artery(38,renalL) artery(33,renalR) artery(44,renalL_mysterious) artery(9,renalR_mysterious) artery(14,inf_mesenteric) artery(32,lumbarL1) artery(37,lumbarR1) artery(31,lumbarL2) artery(36,lumbarR2) artery(26,lumbarR3) artery(23,lumbarL3) artery(2,gastricL) artery(3,dorsal_pancreatic) confidence_rule(celiac_trunk,0) confidence_rule(celiac_trunk,1) confidence_rule(celiac_trunk,2) confidence_rule(celiac_trunk,3) confidence_rule(celiac_trunk,4) confidence_rule(celiac_trunk,7) confidence_rule(celiac_trunk,12) confidence_rule(gastricL,0) confidence_rule(gastricL,1) confidence_rule(dorsal_pancreatic,0) confidence_rule(dorsal_pancreatic,1) confidence_rule(sup_mesenteric,0) confidence_rule(sup_mesenteric,1) confidence_rule(sup_mesenteric,2) confidence_rule(sup_mesenteric,5) confidence_rule(sup_mesenteric,8) confidence_rule(renalL,0) confidence_rule(renalL,1) confidence_rule(renalL,2) confidence_rule(renalL,3) confidence_rule(renalL,7) confidence_rule(renalR,0) confidence_rule(renalR,1) confidence_rule(renalR,2) confidence_rule(renalR,5) confidence_rule(renalR,6) confidence_rule(renalR,7) confidence_rule(renalL_mysterious,1) confidence_rule(renalL_mysterious,2) confidence_rule(renalL_mysterious,3) confidence_rule(renalL_mysterious,5) confidence_rule(renalR_mysterious,1) confidence_rule(renalR_mysterious,2) confidence_rule(renalR_mysterious,3) confidence_rule(renalR_mysterious,4) confidence_rule(renalR_mysterious,6) confidence_rule(inf_mesenteric,0) confidence_rule(inf_mesenteric,1) confidence_rule(inf_mesenteric,2) confidence_rule(inf_mesenteric,3) confidence_rule(inf_mesenteric,4) confidence_rule(inf_mesenteric,5) confidence_rule(inf_mesenteric,7) confidence_rule(inf_mesenteric,8) confidence_rule(lumbarL1,0) confidence_rule(lumbarL1,3) confidence_rule(lumbarL1,4) confidence_rule(lumbarL1,7) confidence_rule(lumbarL1,11) confidence_rule(lumbarL1,14) confidence_rule(lumbarR1,0) confidence_rule(lumbarR1,3) confidence_rule(lumbarR1,10) confidence_rule(lumbarR1,11) confidence_rule(lumbarR1,12) confidence_rule(lumbarR1,13) confidence_rule(lumbarL2,0) confidence_rule(lumbarL2,2) confidence_rule(lumbarL2,3) confidence_rule(lumbarL2,4) confidence_rule(lumbarL2,11) confidence_rule(lumbarL2,12) confidence_rule(lumbarL2,13) confidence_rule(lumbarL2,14) confidence_rule(lumbarR2,0) confidence_rule(lumbarR2,2) confidence_rule(lumbarR2,3) confidence_rule(lumbarR2,4) confidence_rule(lumbarR2,11) confidence_rule(lumbarR2,12) confidence_rule(lumbarR2,13) confidence_rule(lumbarR2,14) confidence_rule(lumbarR3,0) confidence_rule(lumbarR3,3) confidence_rule(lumbarR3,13) confidence_rule(lumbarR3,14) confidence_rule(lumbarL3,0) confidence_rule(lumbarL3,3) confidence_rule(lumbarL3,8) confidence_rule(lumbarL3,13) confidence_rule(lumbarL3,14)
Optimization: -81
Answer: 10
artery(0,celiac_trunk) artery(1,sup_mesenteric) artery(38,renalL) artery(33,renalR) artery(44,renalL_mysterious) artery(9,renalR_mysterious) artery(14,inf_mesenteric) artery(32,lumbarL1) artery(37,lumbarR1) artery(31,lumbarL2) artery(36,lumbarR2) artery(26,lumbarR3) artery(23,lumbarL3) artery(3,gastricL) artery(11,hepatic) artery(2,dorsal_pancreatic) confidence_rule(celiac_trunk,0) confidence_rule(celiac_trunk,1) confidence_rule(celiac_trunk,2) confidence_rule(celiac_trunk,3) confidence_rule(celiac_trunk,4) confidence_rule(celiac_trunk,7) confidence_rule(celiac_trunk,12) confidence_rule(gastricL,0) confidence_rule(gastricL,1) confidence_rule(hepatic,0) confidence_rule(hepatic,2) confidence_rule(dorsal_pancreatic,0) confidence_rule(sup_mesenteric,0) confidence_rule(sup_mesenteric,1) confidence_rule(sup_mesenteric,2) confidence_rule(sup_mesenteric,3) confidence_rule(sup_mesenteric,5) confidence_rule(sup_mesenteric,8) confidence_rule(renalL,0) confidence_rule(renalL,1) confidence_rule(renalL,2) confidence_rule(renalL,3) confidence_rule(renalL,7) confidence_rule(renalR,0) confidence_rule(renalR,1) confidence_rule(renalR,2) confidence_rule(renalR,5) confidence_rule(renalR,6) confidence_rule(renalR,7) confidence_rule(renalL_mysterious,1) confidence_rule(renalL_mysterious,2) confidence_rule(renalL_mysterious,3) confidence_rule(renalL_mysterious,5) confidence_rule(renalR_mysterious,1) confidence_rule(renalR_mysterious,2) confidence_rule(renalR_mysterious,3) confidence_rule(renalR_mysterious,4) confidence_rule(renalR_mysterious,6) confidence_rule(inf_mesenteric,0) confidence_rule(inf_mesenteric,1) confidence_rule(inf_mesenteric,2) confidence_rule(inf_mesenteric,3) confidence_rule(inf_mesenteric,4) confidence_rule(inf_mesenteric,5) confidence_rule(inf_mesenteric,7) confidence_rule(inf_mesenteric,8) confidence_rule(lumbarL1,0) confidence_rule(lumbarL1,3) confidence_rule(lumbarL1,4) confidence_rule(lumbarL1,7) confidence_rule(lumbarL1,11) confidence_rule(lumbarL1,14) confidence_rule(lumbarR1,0) confidence_rule(lumbarR1,3) confidence_rule(lumbarR1,10) confidence_rule(lumbarR1,11) confidence_rule(lumbarR1,12) confidence_rule(lumbarR1,13) confidence_rule(lumbarL2,0) confidence_rule(lumbarL2,2) confidence_rule(lumbarL2,3) confidence_rule(lumbarL2,4) confidence_rule(lumbarL2,11) confidence_rule(lumbarL2,12) confidence_rule(lumbarL2,13) confidence_rule(lumbarL2,14) confidence_rule(lumbarR2,0) confidence_rule(lumbarR2,2) confidence_rule(lumbarR2,3) confidence_rule(lumbarR2,4) confidence_rule(lumbarR2,11) confidence_rule(lumbarR2,12) confidence_rule(lumbarR2,13) confidence_rule(lumbarR2,14) confidence_rule(lumbarR3,0) confidence_rule(lumbarR3,3) confidence_rule(lumbarR3,13) confidence_rule(lumbarR3,14) confidence_rule(lumbarL3,0) confidence_rule(lumbarL3,3) confidence_rule(lumbarL3,8) confidence_rule(lumbarL3,13) confidence_rule(lumbarL3,14)
Optimization: -83
Answer: 11
artery(0,celiac_trunk) artery(1,sup_mesenteric) artery(38,renalL) artery(33,renalR) artery(44,renalL_mysterious) artery(9,renalR_mysterious) artery(14,inf_mesenteric) artery(32,lumbarL1) artery(37,lumbarR1) artery(31,lumbarL2) artery(36,lumbarR2) artery(26,lumbarR3) artery(23,lumbarL3) artery(2,gastricL) artery(10,hepatic) artery(3,dorsal_pancreatic) confidence_rule(celiac_trunk,0) confidence_rule(celiac_trunk,1) confidence_rule(celiac_trunk,2) confidence_rule(celiac_trunk,3) confidence_rule(celiac_trunk,4) confidence_rule(celiac_trunk,7) confidence_rule(celiac_trunk,12) confidence_rule(gastricL,0) confidence_rule(gastricL,1) confidence_rule(hepatic,0) confidence_rule(hepatic,2) confidence_rule(dorsal_pancreatic,0) confidence_rule(dorsal_pancreatic,1) confidence_rule(sup_mesenteric,0) confidence_rule(sup_mesenteric,1) confidence_rule(sup_mesenteric,2) confidence_rule(sup_mesenteric,3) confidence_rule(sup_mesenteric,5) confidence_rule(sup_mesenteric,8) confidence_rule(renalL,0) confidence_rule(renalL,1) confidence_rule(renalL,2) confidence_rule(renalL,3) confidence_rule(renalL,7) confidence_rule(renalR,0) confidence_rule(renalR,1) confidence_rule(renalR,2) confidence_rule(renalR,5) confidence_rule(renalR,6) confidence_rule(renalR,7) confidence_rule(renalL_mysterious,1) confidence_rule(renalL_mysterious,2) confidence_rule(renalL_mysterious,3) confidence_rule(renalL_mysterious,5) confidence_rule(renalR_mysterious,1) confidence_rule(renalR_mysterious,2) confidence_rule(renalR_mysterious,3) confidence_rule(renalR_mysterious,4) confidence_rule(renalR_mysterious,6) confidence_rule(inf_mesenteric,0) confidence_rule(inf_mesenteric,1) confidence_rule(inf_mesenteric,2) confidence_rule(inf_mesenteric,3) confidence_rule(inf_mesenteric,4) confidence_rule(inf_mesenteric,5) confidence_rule(inf_mesenteric,7) confidence_rule(inf_mesenteric,8) confidence_rule(lumbarL1,0) confidence_rule(lumbarL1,3) confidence_rule(lumbarL1,4) confidence_rule(lumbarL1,7) confidence_rule(lumbarL1,11) confidence_rule(lumbarL1,14) confidence_rule(lumbarR1,0) confidence_rule(lumbarR1,3) confidence_rule(lumbarR1,10) confidence_rule(lumbarR1,11) confidence_rule(lumbarR1,12) confidence_rule(lumbarR1,13) confidence_rule(lumbarL2,0) confidence_rule(lumbarL2,2) confidence_rule(lumbarL2,3) confidence_rule(lumbarL2,4) confidence_rule(lumbarL2,11) confidence_rule(lumbarL2,12) confidence_rule(lumbarL2,13) confidence_rule(lumbarL2,14) confidence_rule(lumbarR2,0) confidence_rule(lumbarR2,2) confidence_rule(lumbarR2,3) confidence_rule(lumbarR2,4) confidence_rule(lumbarR2,11) confidence_rule(lumbarR2,12) confidence_rule(lumbarR2,13) confidence_rule(lumbarR2,14) confidence_rule(lumbarR3,0) confidence_rule(lumbarR3,3) confidence_rule(lumbarR3,13) confidence_rule(lumbarR3,14) confidence_rule(lumbarL3,0) confidence_rule(lumbarL3,3) confidence_rule(lumbarL3,8) confidence_rule(lumbarL3,13) confidence_rule(lumbarL3,14)
Optimization: -84
Answer: 12
artery(0,celiac_trunk) artery(1,sup_mesenteric) artery(38,renalL) artery(33,renalR) artery(44,renalL_mysterious) artery(9,renalR_mysterious) artery(14,inf_mesenteric) artery(32,lumbarL1) artery(37,lumbarR1) artery(31,lumbarL2) artery(36,lumbarR2) artery(26,lumbarR3) artery(23,lumbarL3) artery(3,gastricL) artery(2,splenic) artery(11,hepatic) artery(12,dorsal_pancreatic) confidence_rule(celiac_trunk,0) confidence_rule(celiac_trunk,1) confidence_rule(celiac_trunk,2) confidence_rule(celiac_trunk,3) confidence_rule(celiac_trunk,4) confidence_rule(celiac_trunk,7) confidence_rule(celiac_trunk,12) confidence_rule(gastricL,0) confidence_rule(gastricL,1) confidence_rule(splenic,0) confidence_rule(hepatic,0) confidence_rule(hepatic,2) confidence_rule(dorsal_pancreatic,0) confidence_rule(dorsal_pancreatic,1) confidence_rule(sup_mesenteric,0) confidence_rule(sup_mesenteric,1) confidence_rule(sup_mesenteric,2) confidence_rule(sup_mesenteric,3) confidence_rule(sup_mesenteric,5) confidence_rule(sup_mesenteric,8) confidence_rule(renalL,0) confidence_rule(renalL,1) confidence_rule(renalL,2) confidence_rule(renalL,3) confidence_rule(renalL,7) confidence_rule(renalR,0) confidence_rule(renalR,1) confidence_rule(renalR,2) confidence_rule(renalR,5) confidence_rule(renalR,6) confidence_rule(renalR,7) confidence_rule(renalL_mysterious,1) confidence_rule(renalL_mysterious,2) confidence_rule(renalL_mysterious,3) confidence_rule(renalL_mysterious,5) confidence_rule(renalR_mysterious,1) confidence_rule(renalR_mysterious,2) confidence_rule(renalR_mysterious,3) confidence_rule(renalR_mysterious,4) confidence_rule(renalR_mysterious,6) confidence_rule(inf_mesenteric,0) confidence_rule(inf_mesenteric,1) confidence_rule(inf_mesenteric,2) confidence_rule(inf_mesenteric,3) confidence_rule(inf_mesenteric,4) confidence_rule(inf_mesenteric,5) confidence_rule(inf_mesenteric,7) confidence_rule(inf_mesenteric,8) confidence_rule(lumbarL1,0) confidence_rule(lumbarL1,3) confidence_rule(lumbarL1,4) confidence_rule(lumbarL1,7) confidence_rule(lumbarL1,11) confidence_rule(lumbarL1,14) confidence_rule(lumbarR1,0) confidence_rule(lumbarR1,3) confidence_rule(lumbarR1,10) confidence_rule(lumbarR1,11) confidence_rule(lumbarR1,12) confidence_rule(lumbarR1,13) confidence_rule(lumbarL2,0) confidence_rule(lumbarL2,2) confidence_rule(lumbarL2,3) confidence_rule(lumbarL2,4) confidence_rule(lumbarL2,11) confidence_rule(lumbarL2,12) confidence_rule(lumbarL2,13) confidence_rule(lumbarL2,14) confidence_rule(lumbarR2,0) confidence_rule(lumbarR2,2) confidence_rule(lumbarR2,3) confidence_rule(lumbarR2,4) confidence_rule(lumbarR2,11) confidence_rule(lumbarR2,12) confidence_rule(lumbarR2,13) confidence_rule(lumbarR2,14) confidence_rule(lumbarR3,0) confidence_rule(lumbarR3,3) confidence_rule(lumbarR3,13) confidence_rule(lumbarR3,14) confidence_rule(lumbarL3,0) confidence_rule(lumbarL3,3) confidence_rule(lumbarL3,8) confidence_rule(lumbarL3,13) confidence_rule(lumbarL3,14)
Optimization: -85
Answer: 13
artery(0,celiac_trunk) artery(1,sup_mesenteric) artery(38,renalL) artery(33,renalR) artery(39,renalL_mysterious) artery(9,renalR_mysterious) artery(14,inf_mesenteric) artery(32,lumbarL1) artery(37,lumbarR1) artery(31,lumbarL2) artery(36,lumbarR2) artery(26,lumbarR3) artery(23,lumbarL3) artery(2,gastricL) artery(3,splenic) artery(10,hepatic) artery(11,dorsal_pancreatic) confidence_rule(celiac_trunk,0) confidence_rule(celiac_trunk,1) confidence_rule(celiac_trunk,2) confidence_rule(celiac_trunk,3) confidence_rule(celiac_trunk,4) confidence_rule(celiac_trunk,7) confidence_rule(celiac_trunk,12) confidence_rule(gastricL,0) confidence_rule(gastricL,1) confidence_rule(splenic,0) confidence_rule(hepatic,0) confidence_rule(hepatic,2) confidence_rule(dorsal_pancreatic,0) confidence_rule(dorsal_pancreatic,1) confidence_rule(sup_mesenteric,0) confidence_rule(sup_mesenteric,1) confidence_rule(sup_mesenteric,2) confidence_rule(sup_mesenteric,3) confidence_rule(sup_mesenteric,5) confidence_rule(sup_mesenteric,8) confidence_rule(renalL,0) confidence_rule(renalL,1) confidence_rule(renalL,2) confidence_rule(renalL,3) confidence_rule(renalL,7) confidence_rule(renalR,0) confidence_rule(renalR,1) confidence_rule(renalR,2) confidence_rule(renalR,5) confidence_rule(renalR,6) confidence_rule(renalR,7) confidence_rule(renalL_mysterious,0) confidence_rule(renalL_mysterious,1) confidence_rule(renalL_mysterious,2) confidence_rule(renalL_mysterious,3) confidence_rule(renalL_mysterious,5) confidence_rule(renalR_mysterious,1) confidence_rule(renalR_mysterious,2) confidence_rule(renalR_mysterious,3) confidence_rule(renalR_mysterious,4) confidence_rule(renalR_mysterious,6) confidence_rule(inf_mesenteric,0) confidence_rule(inf_mesenteric,1) confidence_rule(inf_mesenteric,2) confidence_rule(inf_mesenteric,3) confidence_rule(inf_mesenteric,4) confidence_rule(inf_mesenteric,5) confidence_rule(inf_mesenteric,7) confidence_rule(inf_mesenteric,8) confidence_rule(lumbarL1,0) confidence_rule(lumbarL1,3) confidence_rule(lumbarL1,4) confidence_rule(lumbarL1,7) confidence_rule(lumbarL1,11) confidence_rule(lumbarL1,14) confidence_rule(lumbarR1,0) confidence_rule(lumbarR1,3) confidence_rule(lumbarR1,10) confidence_rule(lumbarR1,11) confidence_rule(lumbarR1,12) confidence_rule(lumbarR1,13) confidence_rule(lumbarL2,0) confidence_rule(lumbarL2,2) confidence_rule(lumbarL2,3) confidence_rule(lumbarL2,4) confidence_rule(lumbarL2,11) confidence_rule(lumbarL2,12) confidence_rule(lumbarL2,13) confidence_rule(lumbarL2,14) confidence_rule(lumbarR2,0) confidence_rule(lumbarR2,2) confidence_rule(lumbarR2,3) confidence_rule(lumbarR2,4) confidence_rule(lumbarR2,11) confidence_rule(lumbarR2,12) confidence_rule(lumbarR2,13) confidence_rule(lumbarR2,14) confidence_rule(lumbarR3,0) confidence_rule(lumbarR3,3) confidence_rule(lumbarR3,13) confidence_rule(lumbarR3,14) confidence_rule(lumbarL3,0) confidence_rule(lumbarL3,3) confidence_rule(lumbarL3,8) confidence_rule(lumbarL3,13) confidence_rule(lumbarL3,14)
Optimization: -86
Answer: 14
artery(0,celiac_trunk) artery(1,sup_mesenteric) artery(32,renalL) artery(33,renalR) artery(39,renalL_mysterious) artery(9,renalR_mysterious) artery(14,inf_mesenteric) artery(38,lumbarL1) artery(44,lumbarL2) artery(37,lumbarR2) artery(36,lumbarR3) artery(31,lumbarL3) artery(26,lumbarR4) artery(3,gastricL) artery(2,splenic) artery(10,hepatic) artery(4,dorsal_pancreatic) confidence_rule(celiac_trunk,0) confidence_rule(celiac_trunk,1) confidence_rule(celiac_trunk,2) confidence_rule(celiac_trunk,3) confidence_rule(celiac_trunk,4) confidence_rule(celiac_trunk,7) confidence_rule(celiac_trunk,12) confidence_rule(gastricL,0) confidence_rule(gastricL,1) confidence_rule(splenic,0) confidence_rule(hepatic,0) confidence_rule(hepatic,2) confidence_rule(dorsal_pancreatic,0) confidence_rule(sup_mesenteric,0) confidence_rule(sup_mesenteric,1) confidence_rule(sup_mesenteric,2) confidence_rule(sup_mesenteric,3) confidence_rule(sup_mesenteric,5) confidence_rule(sup_mesenteric,7) confidence_rule(sup_mesenteric,8) confidence_rule(renalL,2) confidence_rule(renalL,3) confidence_rule(renalL,5) confidence_rule(renalL,7) confidence_rule(renalR,0) confidence_rule(renalR,1) confidence_rule(renalR,2) confidence_rule(renalR,5) confidence_rule(renalR,6) confidence_rule(renalR,7) confidence_rule(renalL_mysterious,0) confidence_rule(renalL_mysterious,1) confidence_rule(renalL_mysterious,2) confidence_rule(renalL_mysterious,3) confidence_rule(renalL_mysterious,5) confidence_rule(renalR_mysterious,1) confidence_rule(renalR_mysterious,2) confidence_rule(renalR_mysterious,3) confidence_rule(renalR_mysterious,4) confidence_rule(renalR_mysterious,6) confidence_rule(inf_mesenteric,0) confidence_rule(inf_mesenteric,1) confidence_rule(inf_mesenteric,2) confidence_rule(inf_mesenteric,3) confidence_rule(inf_mesenteric,4) confidence_rule(inf_mesenteric,7) confidence_rule(inf_mesenteric,8) confidence_rule(lumbarL1,3) confidence_rule(lumbarL1,4) confidence_rule(lumbarL1,5) confidence_rule(lumbarL1,7) confidence_rule(lumbarL1,8) confidence_rule(lumbarL2,0) confidence_rule(lumbarL2,2) confidence_rule(lumbarL2,3) confidence_rule(lumbarL2,4) confidence_rule(lumbarL2,11) confidence_rule(lumbarL2,12) confidence_rule(lumbarL2,13) confidence_rule(lumbarL2,14) confidence_rule(lumbarR2,0) confidence_rule(lumbarR2,3) confidence_rule(lumbarR2,4) confidence_rule(lumbarR2,10) confidence_rule(lumbarR2,11) confidence_rule(lumbarR2,12) confidence_rule(lumbarR2,13) confidence_rule(lumbarR2,14) confidence_rule(lumbarR3,0) confidence_rule(lumbarR3,2) confidence_rule(lumbarR3,3) confidence_rule(lumbarR3,4) confidence_rule(lumbarR3,5) confidence_rule(lumbarR3,11) confidence_rule(lumbarR3,12) confidence_rule(lumbarR3,13) confidence_rule(lumbarR3,14) confidence_rule(lumbarL3,0) confidence_rule(lumbarL3,2) confidence_rule(lumbarL3,3) confidence_rule(lumbarL3,4) confidence_rule(lumbarL3,11) confidence_rule(lumbarL3,12) confidence_rule(lumbarL3,13) confidence_rule(lumbarL3,14) confidence_rule(lumbarR4,0) confidence_rule(lumbarR4,3)
Optimization: -87
Answer: 15
artery(0,celiac_trunk) artery(1,sup_mesenteric) artery(32,renalL) artery(33,renalR) artery(39,renalL_mysterious) artery(9,renalR_mysterious) artery(14,inf_mesenteric) artery(38,lumbarL1) artery(44,lumbarL2) artery(37,lumbarR2) artery(36,lumbarR3) artery(31,lumbarL3) artery(26,lumbarR4) artery(3,gastricL) artery(2,splenic) artery(10,hepatic) artery(5,dorsal_pancreatic) confidence_rule(celiac_trunk,0) confidence_rule(celiac_trunk,1) confidence_rule(celiac_trunk,2) confidence_rule(celiac_trunk,3) confidence_rule(celiac_trunk,4) confidence_rule(celiac_trunk,7) confidence_rule(celiac_trunk,12) confidence_rule(gastricL,0) confidence_rule(gastricL,1) confidence_rule(splenic,0) confidence_rule(hepatic,0) confidence_rule(hepatic,2) confidence_rule(dorsal_pancreatic,0) confidence_rule(dorsal_pancreatic,1) confidence_rule(sup_mesenteric,0) confidence_rule(sup_mesenteric,1) confidence_rule(sup_mesenteric,2) confidence_rule(sup_mesenteric,3) confidence_rule(sup_mesenteric,5) confidence_rule(sup_mesenteric,7) confidence_rule(sup_mesenteric,8) confidence_rule(renalL,2) confidence_rule(renalL,3) confidence_rule(renalL,5) confidence_rule(renalL,7) confidence_rule(renalR,0) confidence_rule(renalR,1) confidence_rule(renalR,2) confidence_rule(renalR,5) confidence_rule(renalR,6) confidence_rule(renalR,7) confidence_rule(renalL_mysterious,0) confidence_rule(renalL_mysterious,1) confidence_rule(renalL_mysterious,2) confidence_rule(renalL_mysterious,3) confidence_rule(renalL_mysterious,5) confidence_rule(renalR_mysterious,1) confidence_rule(renalR_mysterious,2) confidence_rule(renalR_mysterious,3) confidence_rule(renalR_mysterious,4) confidence_rule(renalR_mysterious,6) confidence_rule(inf_mesenteric,0) confidence_rule(inf_mesenteric,1) confidence_rule(inf_mesenteric,2) confidence_rule(inf_mesenteric,3) confidence_rule(inf_mesenteric,4) confidence_rule(inf_mesenteric,7) confidence_rule(inf_mesenteric,8) confidence_rule(lumbarL1,3) confidence_rule(lumbarL1,4) confidence_rule(lumbarL1,5) confidence_rule(lumbarL1,7) confidence_rule(lumbarL1,8) confidence_rule(lumbarL2,0) confidence_rule(lumbarL2,2) confidence_rule(lumbarL2,3) confidence_rule(lumbarL2,4) confidence_rule(lumbarL2,11) confidence_rule(lumbarL2,12) confidence_rule(lumbarL2,13) confidence_rule(lumbarL2,14) confidence_rule(lumbarR2,0) confidence_rule(lumbarR2,3) confidence_rule(lumbarR2,4) confidence_rule(lumbarR2,10) confidence_rule(lumbarR2,11) confidence_rule(lumbarR2,12) confidence_rule(lumbarR2,13) confidence_rule(lumbarR2,14) confidence_rule(lumbarR3,0) confidence_rule(lumbarR3,2) confidence_rule(lumbarR3,3) confidence_rule(lumbarR3,4) confidence_rule(lumbarR3,5) confidence_rule(lumbarR3,11) confidence_rule(lumbarR3,12) confidence_rule(lumbarR3,13) confidence_rule(lumbarR3,14) confidence_rule(lumbarL3,0) confidence_rule(lumbarL3,2) confidence_rule(lumbarL3,3) confidence_rule(lumbarL3,4) confidence_rule(lumbarL3,11) confidence_rule(lumbarL3,12) confidence_rule(lumbarL3,13) confidence_rule(lumbarL3,14) confidence_rule(lumbarR4,0) confidence_rule(lumbarR4,3)
Optimization: -88
Answer: 16
artery(0,celiac_trunk) artery(1,sup_mesenteric) artery(38,renalL) artery(33,renalR) artery(39,renalL_mysterious) artery(9,renalR_mysterious) artery(14,inf_mesenteric) artery(32,lumbarL1) artery(44,lumbarL2) artery(37,lumbarR2) artery(36,lumbarR3) artery(31,lumbarL3) artery(26,lumbarR4) artery(3,gastricL) artery(2,splenic) artery(10,hepatic) artery(5,dorsal_pancreatic) confidence_rule(celiac_trunk,0) confidence_rule(celiac_trunk,1) confidence_rule(celiac_trunk,2) confidence_rule(celiac_trunk,3) confidence_rule(celiac_trunk,4) confidence_rule(celiac_trunk,7) confidence_rule(celiac_trunk,12) confidence_rule(gastricL,0) confidence_rule(gastricL,1) confidence_rule(splenic,0) confidence_rule(hepatic,0) confidence_rule(hepatic,2) confidence_rule(dorsal_pancreatic,0) confidence_rule(dorsal_pancreatic,1) confidence_rule(sup_mesenteric,0) confidence_rule(sup_mesenteric,1) confidence_rule(sup_mesenteric,2) confidence_rule(sup_mesenteric,3) confidence_rule(sup_mesenteric,5) confidence_rule(sup_mesenteric,8) confidence_rule(renalL,0) confidence_rule(renalL,1) confidence_rule(renalL,2) confidence_rule(renalL,3) confidence_rule(renalL,7) confidence_rule(renalR,0) confidence_rule(renalR,1) confidence_rule(renalR,2) confidence_rule(renalR,5) confidence_rule(renalR,6) confidence_rule(renalR,7) confidence_rule(renalL_mysterious,0) confidence_rule(renalL_mysterious,1) confidence_rule(renalL_mysterious,2) confidence_rule(renalL_mysterious,3) confidence_rule(renalL_mysterious,5) confidence_rule(renalR_mysterious,1) confidence_rule(renalR_mysterious,2) confidence_rule(renalR_mysterious,3) confidence_rule(renalR_mysterious,4) confidence_rule(renalR_mysterious,6) confidence_rule(inf_mesenteric,0) confidence_rule(inf_mesenteric,1) confidence_rule(inf_mesenteric,2) confidence_rule(inf_mesenteric,3) confidence_rule(inf_mesenteric,4) confidence_rule(inf_mesenteric,5) confidence_rule(inf_mesenteric,7) confidence_rule(inf_mesenteric,8) confidence_rule(lumbarL1,0) confidence_rule(lumbarL1,3) confidence_rule(lumbarL1,4) confidence_rule(lumbarL1,5) confidence_rule(lumbarL1,7) confidence_rule(lumbarL1,8) confidence_rule(lumbarL1,11) confidence_rule(lumbarL2,0) confidence_rule(lumbarL2,2) confidence_rule(lumbarL2,3) confidence_rule(lumbarL2,4) confidence_rule(lumbarL2,11) confidence_rule(lumbarL2,12) confidence_rule(lumbarL2,13) confidence_rule(lumbarL2,14) confidence_rule(lumbarR2,0) confidence_rule(lumbarR2,3) confidence_rule(lumbarR2,4) confidence_rule(lumbarR2,10) confidence_rule(lumbarR2,11) confidence_rule(lumbarR2,12) confidence_rule(lumbarR2,13) confidence_rule(lumbarR2,14) confidence_rule(lumbarR3,0) confidence_rule(lumbarR3,2) confidence_rule(lumbarR3,3) confidence_rule(lumbarR3,4) confidence_rule(lumbarR3,5) confidence_rule(lumbarR3,11) confidence_rule(lumbarR3,12) confidence_rule(lumbarR3,13) confidence_rule(lumbarR3,14) confidence_rule(lumbarL3,0) confidence_rule(lumbarL3,2) confidence_rule(lumbarL3,3) confidence_rule(lumbarL3,4) confidence_rule(lumbarL3,11) confidence_rule(lumbarL3,12) confidence_rule(lumbarL3,13) confidence_rule(lumbarL3,14) confidence_rule(lumbarR4,0) confidence_rule(lumbarR4,3)
Optimization: -91
OPTIMUM FOUND

Models       : 16
  Optimum    : yes
Optimization : -91
Calls        : 1
Time         : 74.562s (Solving: 74.52s 1st Model: 0.00s Unsat: 74.06s)
CPU Time     : 592.600s
Threads      : 8        (Winner: 6)
